(set-info :status sat) ; swine result
(set-logic ALL)
(declare-fun i1 () Int)
(declare-fun it826 () Int)
(declare-fun i2 () Int)
(declare-fun it827 () Int)
(declare-fun i3 () Int)
(declare-fun it828 () Int)
(declare-fun it829 () Int)
(declare-fun i4 () Int)
(declare-fun i5 () Int)
(declare-fun it830 () Int)
(declare-fun i6 () Int)
(declare-fun it831 () Int)
(declare-fun i7 () Int)
(declare-fun it832 () Int)
(declare-fun it833 () Int)
(declare-fun i8 () Int)
(declare-fun i9 () Int)
(declare-fun it834 () Int)
(declare-fun i10 () Int)
(declare-fun it835 () Int)
(declare-fun it836 () Int)
(declare-fun it837 () Int)
(declare-fun it838 () Int)
(declare-fun it839 () Int)
(declare-fun it840 () Int)
(declare-fun it841 () Int)
(declare-fun it842 () Int)
(declare-fun it843 () Int)
(declare-fun it844 () Int)
(declare-fun it845 () Int)
(declare-fun it3 () Int)
(declare-fun it182 () Int)
(declare-fun it52 () Int)
(declare-fun it2293 () Int)
(declare-fun it2045 () Int)
(declare-fun it51 () Int)
(declare-fun it50 () Int)
(declare-fun it6 () Int)
(declare-fun it2301 () Int)
(declare-fun it2302 () Int)
(declare-fun it2303 () Int)
(declare-fun it2304 () Int)
(declare-fun it2305 () Int)
(declare-fun it2306 () Int)
(declare-fun it2307 () Int)
(declare-fun it2308 () Int)
(declare-fun it2309 () Int)
(declare-fun it2310 () Int)
(declare-fun it2591 () Int)
(declare-fun it2592 () Int)
(declare-fun it2593 () Int)
(declare-fun it2594 () Int)
(declare-fun it2595 () Int)
(declare-fun it2596 () Int)
(declare-fun it2597 () Int)
(declare-fun it2598 () Int)
(declare-fun it2599 () Int)
(declare-fun it2600 () Int)
(declare-fun it2873 () Int)
(declare-fun it2874 () Int)
(declare-fun it2875 () Int)
(declare-fun it2876 () Int)
(declare-fun it2877 () Int)
(declare-fun it2878 () Int)
(declare-fun it2879 () Int)
(declare-fun it2880 () Int)
(declare-fun it2881 () Int)
(declare-fun it2882 () Int)
(declare-fun it624 () Int)
(assert (= (+ i1 (- 1)) 0))
(assert (= (+ it826 (- 5)) 0))
(assert (= (+ it827 (* i2 (- 1)) (- 4)) 0))
(assert (= (+ it828 (* i3 (- 1))) 0))
(assert (= (+ (* i4 (- 1)) it829) 0))
(assert (= (+ it830 (* i5 (- 1))) 0))
(assert (= (+ it831 (* i6 (- 1))) 0))
(assert (= (+ it832 (* i7 (- 1))) 0))
(assert (= (+ (* i8 (- 1)) it833) 0))
(assert (= (+ it834 (* i9 (- 1))) 0))
(assert (= (+ it835 (* i10 (- 1))) 0))
(assert (and (> (+ it830 (- 2)) 0) (= (+ it826 (- 5)) 0)))
(assert (= (+ it836 (- 6)) 0))
(assert (= (+ (* it827 (- 1)) it837 (- 1)) 0))
(assert (= (+ (* it828 (- 1)) it838) 0))
(assert (= (+ (* it829 (- 1)) it839) 0))
(assert (= (+ (* it830 (- 1)) it840) 0))
(assert (= (+ (* it831 (- 1)) it841) 0))
(assert (= (+ (* it832 (- 1)) it842) 0))
(assert (= (+ it843 (- 1)) 0))
(assert (= (+ (* it834 (- 1)) it844) 0))
(assert (= (+ (* it835 (- 1)) it845) 0))
(assert (let ((a!1 (+ (+ (+ (* it182 (- 1)) (* it843 (- 1))) it840)
              (* (* (+ it2293 (- 1)) it2045) (- 1))
              (* (* it182 (+ it2293 (- 1))) (- 1))))
      (a!2 (+ (+ (* it182 (- 1)) (* it843 (- 1)))
              (* (* (+ it2293 (- 1)) it2045) (- 1))))
      (a!4 (+ (+ (+ it182 it843) (* (+ it2293 (- 1)) it2045))
              (* it182 (+ it2293 (- 1)))))
      (a!7 (+ (+ (+ (* it182 (- 1)) (* it843 (- 1))) it840) (* it2045 (- 1))))
      (a!8 (+ (+ (* it182 (- 1)) (* it843 (- 1))) (* it51 2)))
      (a!9 (+ (+ (* it843 (- 1)) it840)
              (* (* (+ it2293 (- 1)) it2045) (- 1))
              (* (* it182 (+ it2293 (- 1))) (- 1))
              (- 1)))
      (a!10 (+ (+ (* it182 (- 1)) (* it843 (- 1))) (* it50 2)))
      (a!11 (+ it843 (* (+ it2293 (- 1)) it2045) (* it182 (+ it2293 (- 1)))))
      (a!13 (+ (+ (+ (* it182 (- 1)) (* it843 (- 1))) it840) (- 1)))
      (a!14 (+ (+ (* it182 (- 1)) (* it843 (- 1))) (* it52 2)))
      (a!15 (>= (+ (+ (* it182 (- 1)) (* it843 (- 1))) it840) 0))
      (a!16 (+ (+ (* it182 (- 1)) (* it843 (- 1))) (* it3 2)))
      (a!18 (> (+ (+ (* it182 (- 1)) (* it843 (- 1))) (* it6 2) 4) 0))
      (a!19 (+ (* it843 (- 1))
               (* (* (+ it2293 (- 1)) it2045) (- 1))
               (* (* it182 (+ it2293 (- 1))) (- 1))
               (* it6 2)
               3))
      (a!20 (+ (+ (+ it182 it843) (* (+ it2293 (- 1)) it2045))
               (* it50 (- 2))
               (* it182 (+ it2293 (- 1)))
               (- 1)))
      (a!21 (>= (+ (+ (* it843 (- 1)) it840) (- 1)) 0)))
(let ((a!3 (+ a!2 (* it50 2) (* (* it182 (+ it2293 (- 1))) (- 1))))
      (a!5 (+ a!2 (* (* it182 (+ it2293 (- 1))) (- 1)))))
(let ((a!6 (> (+ (+ a!5 (* it51 2)) (* it2045 (- 1)) 4) 0))
      (a!12 (> (+ (+ a!5 (* it3 2)) 3) 0))
      (a!17 (> (+ (+ a!5 (* it51 2)) 3) 0))
      (a!22 (> (+ (+ a!5 (* it52 2)) 3) 0))
      (a!23 (> (+ (+ a!5 (* it52 2)) (* it2045 (- 1)) 4) 0))
      (a!24 (> (+ (+ a!5 (* it3 2)) (* it2045 (- 1)) 4) 0)))
  (and (> (+ (* it843 (- 1)) (* it6 2) 3) 0)
       (>= (+ a!1 (* it2045 (- 1))) 0)
       (>= it3 0)
       (>= it6 0)
       (>= it51 0)
       (>= it50 0)
       (>= it52 0)
       (> (+ a!3 (* it2045 (- 1)) 4) 0)
       (> a!4 0)
       a!6
       (>= a!7 0)
       (>= (+ it836 (- 6)) 0)
       (> (+ a!8 3) 0)
       (>= a!9 0)
       (> (+ a!10 3) 0)
       (>= (+ (+ it182 it843) (* it52 (- 2)) (- 1)) 0)
       (>= (+ (* it52 (- 1)) 1) 0)
       (> (+ a!3 3) 0)
       (>= (+ it843 (* it6 (- 2)) (- 1)) 0)
       (> a!11 0)
       (>= (+ (+ it182 it843) (* it50 (- 2)) (- 1)) 0)
       (> (+ a!8 (* it2045 (- 1)) 4) 0)
       (>= (+ (+ it182 it843) (* it51 (- 2)) (- 1)) 0)
       a!12
       (> it843 0)
       (> (+ it843 1) 0)
       (>= (+ it182 (- 1)) 0)
       (>= a!13 0)
       (> (+ a!14 3) 0)
       (> (+ a!11 1) 0)
       (> (+ a!4 1) 0)
       (> (+ (+ it182 it843) 1) 0)
       (> (+ it182 it843) 0)
       a!15
       (> (+ a!16 (* it2045 (- 1)) 4) 0)
       (>= (+ it2045 (- 1)) 0)
       a!17
       (> (+ a!16 3) 0)
       a!18
       (>= a!1 0)
       (>= (+ it2293 (- 1)) 0)
       (>= (+ a!4 (* it3 (- 2)) (- 1)) 0)
       (> a!19 0)
       (> (+ a!5 (* it6 2) 4) 0)
       (>= a!20 0)
       (>= (+ (* it836 (- 1)) 6) 0)
       (>= (+ a!1 (- 1)) 0)
       a!21
       (> (+ a!14 (* it2045 (- 1)) 4) 0)
       (>= (+ a!11 (* it6 (- 2)) (- 1)) 0)
       a!22
       a!23
       (> (+ a!10 (* it2045 (- 1)) 4) 0)
       (>= (+ a!4 (* it51 (- 2)) (- 1)) 0)
       a!24
       (>= (+ a!4 (* it52 (- 2)) (- 1)) 0)
       (>= (+ (+ it182 it843) (* it3 (- 2)) (- 1)) 0))))))
(assert (= (+ it2301 (* it836 (- 1))) 0))
(assert (= (+ (* it837 (- 1)) (* it2293 it2045 (- 8)) (* it2293 it182 (- 6)) it2302) 0))
(assert (= (+ it2303
      (* it182 (- 1))
      (* it843 (- 1))
      (* (+ it2293 (- 1)) it2045 (- 1))
      (* it182 (+ it2293 (- 1)) (- 1))
      (* it2045 (- 1)))
   0))
(assert (= (+ it2304 (* it839 (- 1))) 0))
(assert (= (+ (* it840 (- 1)) it2305) 0))
(assert (= (+ it2306 (* it52 (- 1)) 1) 0))
(assert (= (+ it2307 (* it842 (- 1))) 0))
(assert (= (+ (* it843 (- 1)) (* it2293 it2045 (- 1)) it2308 (* it2293 it182 (- 1))) 0))
(assert (= (+ it2309 (* it844 (- 1))) 0))
(assert (= (+ it2310 (* it845 (- 1))) 0))
(assert (and (= (+ it2301 (- 6)) 0) (> (+ it2308 (* it2305 (- 1)) 1) 0)))
(assert (= (+ it2591 (- 25)) 0))
(assert (= (+ it2592 (* it2302 (- 1)) (- 12)) 0))
(assert (= (+ (* it2303 (- 1)) it2593) 0))
(assert (= (+ it2594 (* it2304 (- 1))) 0))
(assert (= (+ it2595 (* it2305 (- 1))) 0))
(assert (= (+ (* it2306 (- 1)) it2596) 0))
(assert (= (+ it2597 (* it2307 (- 1))) 0))
(assert (= (+ it2598 (* it2308 (- 1))) 0))
(assert (= it2599 0))
(assert (= (+ (* it2310 (- 1)) it2600) 0))
(assert (and (<= (+ (* it2595 (- 1)) it2599 2) 0) (= (+ it2591 (- 25)) 0)))
(assert (= (+ it2873 (- 27)) 0))
(assert (= (+ (* it2592 (- 1)) it2874 (- 2)) 0))
(assert (= (+ (* it2593 (- 1)) it2875) 0))
(assert (= (+ (* it2594 (- 1)) it2876) 0))
(assert (= (+ (* it2595 (- 1)) it2877) 0))
(assert (= (+ (* it2596 (- 1)) it2878) 0))
(assert (= it2879 0))
(assert (= (+ (* it2598 (- 1)) it2880) 0))
(assert (= (+ (* it2599 (- 1)) it2881) 0))
(assert (= (+ it2882 (* it2600 (- 1))) 0))
(assert (let ((a!1 (* (* (+ 0 it2879) (exp 2 (+ it624 (- 1)))) (+ 0 (- 2))))
      (a!3 (* (* (+ 0 it2879) (exp 2 (+ it624 (- 1)))) (+ 0 2))))
(let ((a!2 (+ (* (exp 2 (+ it624 (- 1))) (+ 0 (- 2)))
              (+ 0 it2877)
              a!1
              (+ 0 (* it2881 (- 1)))
              (+ 0 (- 1))))
      (a!4 (+ (* (exp 2 (+ it624 (- 1))) (+ 0 2))
              (+ 0 (* it2877 (- 1)))
              a!3
              (+ 0 it2881)
              (+ 0 1))))
  (and (>= (+ it624 (- 1)) 0)
       (>= (+ (* it2873 (- 1)) 27) 0)
       (>= a!2 (+ 0 0))
       (>= a!4 (+ 0 0))
       (>= (+ it2873 (- 27)) 0)
       (>= (+ (* it2879 (- 2)) it2877 (* it2881 (- 1)) (- 3)) 0)
       (>= (+ (* it2879 2) (* it2877 (- 1)) it2881 3) 0)))))
(check-sat)
